p cnf 40 174
1 2 3 4 0 
-1 -2 0 
-1 -3 0 
-1 -4 0 
-2 -3 0 
-2 -4 0 
-3 -4 0 
5 6 7 8 0 
-5 -6 0 
-5 -7 0 
-5 -8 0 
-6 -7 0 
-6 -8 0 
-7 -8 0 
9 10 11 12 0 
-9 -10 0 
-9 -11 0 
-9 -12 0 
-10 -11 0 
-10 -12 0 
-11 -12 0 
13 14 15 16 0 
-13 -14 0 
-13 -15 0 
-13 -16 0 
-14 -15 0 
-14 -16 0 
-15 -16 0 
17 18 19 20 0 
-17 -18 0 
-17 -19 0 
-17 -20 0 
-18 -19 0 
-18 -20 0 
-19 -20 0 
21 22 23 24 0 
-21 -22 0 
-21 -23 0 
-21 -24 0 
-22 -23 0 
-22 -24 0 
-23 -24 0 
25 26 27 28 0 
-25 -26 0 
-25 -27 0 
-25 -28 0 
-26 -27 0 
-26 -28 0 
-27 -28 0 
29 30 31 32 0 
-29 -30 0 
-29 -31 0 
-29 -32 0 
-30 -31 0 
-30 -32 0 
-31 -32 0 
33 34 35 36 0 
-33 -34 0 
-33 -35 0 
-33 -36 0 
-34 -35 0 
-34 -36 0 
-35 -36 0 
37 38 39 40 0 
-37 -38 0 
-37 -39 0 
-37 -40 0 
-38 -39 0 
-38 -40 0 
-39 -40 0 
-1 -33 0
-2 -34 0
-3 -35 0
-4 -36 0
-1 -29 0
-2 -30 0
-3 -31 0
-4 -32 0
-1 -25 0
-2 -26 0
-3 -27 0
-4 -28 0
-1 -21 0
-2 -22 0
-3 -23 0
-4 -24 0
-1 -17 0
-2 -18 0
-3 -19 0
-4 -20 0
-1 -13 0
-2 -14 0
-3 -15 0
-4 -16 0
-5 -37 0
-6 -38 0
-7 -39 0
-8 -40 0
-5 -33 0
-6 -34 0
-7 -35 0
-8 -36 0
-5 -29 0
-6 -30 0
-7 -31 0
-8 -32 0
-5 -21 0
-6 -22 0
-7 -23 0
-8 -24 0
-5 -13 0
-6 -14 0
-7 -15 0
-8 -16 0
-5 -9 0
-6 -10 0
-7 -11 0
-8 -12 0
-9 -37 0
-10 -38 0
-11 -39 0
-12 -40 0
-9 -29 0
-10 -30 0
-11 -31 0
-12 -32 0
-9 -21 0
-10 -22 0
-11 -23 0
-12 -24 0
-9 -17 0
-10 -18 0
-11 -19 0
-12 -20 0
-9 -13 0
-10 -14 0
-11 -15 0
-12 -16 0
-9 -5 0
-10 -6 0
-11 -7 0
-12 -8 0
-13 -33 0
-14 -34 0
-15 -35 0
-16 -36 0
-13 -29 0
-14 -30 0
-15 -31 0
-16 -32 0
-13 -9 0
-14 -10 0
-15 -11 0
-16 -12 0
-13 -5 0
-14 -6 0
-15 -7 0
-16 -8 0
-13 -1 0
-14 -2 0
-15 -3 0
-16 -4 0
-17 -25 0
-18 -26 0
-19 -27 0
-20 -28 0
-17 -9 0
-18 -10 0
-19 -11 0
-20 -12 0
-17 -1 0
-18 -2 0
-19 -3 0
-20 -4 0
-21 -33 0
-22 -34 0
-23 -35 0
-24 -36 0
-21 -29 0
-22 -30 0
-23 -31 0
-24 -32 0
-21 -9 0
-22 -10 0
-23 -11 0
-24 -12 0
-21 -5 0
-22 -6 0
-23 -7 0
-24 -8 0
-21 -1 0
-22 -2 0
-23 -3 0
-24 -4 0
-25 -33 0
-26 -34 0
-27 -35 0
-28 -36 0
-25 -29 0
-26 -30 0
-27 -31 0
-28 -32 0
-25 -17 0
-26 -18 0
-27 -19 0
-28 -20 0
-25 -1 0
-26 -2 0
-27 -3 0
-28 -4 0
-29 -33 0
-30 -34 0
-31 -35 0
-32 -36 0
-29 -25 0
-30 -26 0
-31 -27 0
-32 -28 0
-29 -21 0
-30 -22 0
-31 -23 0
-32 -24 0
-29 -13 0
-30 -14 0
-31 -15 0
-32 -16 0
-29 -9 0
-30 -10 0
-31 -11 0
-32 -12 0
-29 -5 0
-30 -6 0
-31 -7 0
-32 -8 0
-29 -1 0
-30 -2 0
-31 -3 0
-32 -4 0
-33 -37 0
-34 -38 0
-35 -39 0
-36 -40 0
-33 -29 0
-34 -30 0
-35 -31 0
-36 -32 0
-33 -25 0
-34 -26 0
-35 -27 0
-36 -28 0
-33 -21 0
-34 -22 0
-35 -23 0
-36 -24 0
-33 -13 0
-34 -14 0
-35 -15 0
-36 -16 0
-33 -5 0
-34 -6 0
-35 -7 0
-36 -8 0
-33 -1 0
-34 -2 0
-35 -3 0
-36 -4 0
-37 -33 0
-38 -34 0
-39 -35 0
-40 -36 0
-37 -9 0
-38 -10 0
-39 -11 0
-40 -12 0
-37 -5 0
-38 -6 0
-39 -7 0
-40 -8 0
